interval = 30;
days = 7;
demand = [21,21,21,21,18,16,17,13,17,18,18,13,18,18,21,21,21,23,24,21,16,16,11,11,16,16,22,22,20,20,16,18,18,17,17,17,17,15,15,19,14,17,17,17,17,22,20,18,18,18,18,18,16,14,15,15,19,14,14,9,14,14,17,17,17,19,20,23,18,18,13,13,18,18,24,24,23,23,17,19,19,18,18,18,18,16,16,20,15,18,18,18,18,23,20,18,18,18,18,18,16,14,15,15,19,18,18,13,18,18,21,21,21,23,24,23,18,18,13,13,18,18,24,24,22,22,16,18,18,17,17,17,17,15,15,19,14,17,17,17,17,22,20,18,18,18,18,18,16,14,15,15,19,18,18,13,14,14,17,17,17,19,20,19,14,14,13,13,18,18,24,24,22,22,16,18,18,17,17,17,17,15,15,19,14,17,17,17,17,22,20,18,18,18,18,18,16,14,15,15,19,18,18,13,18,18,21,21,21,23,24,23,18,18,13,13,18,18,24,24,22,22,16,18,18,17,17,17,17,15,15,19,14,20,20,20,20,25,23,21,21,21,21,21,16,14,13,13,17,16,16,11,11,11,14,14,14,19,22,18,15,15,15,16,19,19,24,24,22,22,19,21,21,18,22,22,22,17,20,24,21,22,22,22,22,21,19,18,18,18,18,18,15,13,12,8,12,13,13,11,11,11,12,12,12,17,18,14,11,11,11,12,15,15,20,20,21,21,20,22,22,21,25,25,25,20,23,27,24,28,28,28,28,27,22,21];
shiftTypes = 4;
minStart = [10, 18, 26, 42];
maxStart = [16, 22, 30, 46];
minLength = [14, 14, 14, 14];
maxLength = [18, 18, 18, 18];
minDuties = 4.8;
maxDuties = 5;
avgMinutes = 2280;
weightUnderCover = 1;
weightOverCover = 1;
weightDutiesPerWeek = 0;
weightShiftInstances = 30;
